

0 5898768 
1 5879574 
2 5879368 
3 5863536 
4 5857220 
5 5808484 
6 5804580 
7 5783392 
8 5767900 
9 5764792 
10 5764226 
11 5754266 
12 5737258 
13 5732228 
14 5717936 
15 5715600 
16 5714216 
17 5710308 
18 5702916 
19 5700140 
20 5661024 
21 5641154 
22 5619128 
23 5607268 
24 5598058 
25 5588898 
26 5584164 
27 5582338 
28 5567878 
29 5552688 
30 5550208 
31 5542656 
32 5542148 
33 5521628 
34 5516460 
35 5510616 
36 5510072 
37 5502352 
38 5496570 
39 5484574 
40 5451798 
41 5440866 
42 5433496 
43 5415716 
44 5407278 
45 5405622 
46 5378790 
47 5372562 
48 5369688 
49 5346926 
50 5338530 
51 5330642 
52 5321946 
53 5319526 
54 5316996 
55 5315164 
56 5314248 
57 5310182 
58 5303558 
59 5301828 
60 5288108 
61 5284236 
62 5278792 
63 5263466 
64 5259262 
65 5257822 
66 5250932 
67 5237140 

